NAME: berlin52
COMMENT: Quick (5min) local search tour for berlin52 (8492.201855400936)
TYPE: TOUR
DIMENSION: 52
TOUR_SECTION: 1 44 16 50 20 29 30 23 2 7 42 17 21 31 18 3 45 19 41 8 10 9 43 33 51 12 11 52 14 13 47 26 27 28 4 25 46 37 48 24 5 15 6 38 40 39 34 35 36 49 32 22 -1
EOF